p cnf 30 30
6 -17 16 0
21 26 -5 0
-17 9 -18 0
16 -14 -6 0
14 -16 2 0
-29 24 -5 0
-2 23 -30 0
14 -21 -20 0
12 -20 1 0
23 -14 -2 0
-8 -10 -4 0
-7 -20 -3 0
21 25 -28 0
15 -2 9 0
23 -26 19 0
11 13 2 0
29 -28 -7 0
-21 25 29 0
14 22 3 0
30 20 -14 0
-14 -3 29 0
14 -11 -2 0
-19 -22 10 0
-20 -26 18 0
11 -25 -28 0
30 -4 -23 0
-14 -21 29 0
20 -30 2 0
-7 -21 18 0
-17 -30 27 0
